<number of tasks>
50

<cycle time>
1000

<order strength>
0.195


<task times>
1 292
2 477
3 610
4 247
5 696
6 665
7 634
8 602
9 529
10 482
11 406
12 538
13 648
14 475
15 643
16 457
17 507
18 420
19 445
20 594
21 469
22 559
23 395
24 563
25 451
26 548
27 534
28 438
29 661
30 655
31 313
32 448
33 232
34 528
35 531
36 307
37 581
38 534
39 416
40 406
41 706
42 424
43 392
44 567
45 379
46 426
47 549
48 703
49 549
50 529

<precedence relations>
1,5
1,7
2,6
2,9
4,8
5,10
6,11
7,12
7,16
7,30
8,13
8,14
8,15
8,41
9,14
10,21
11,22
12,17
13,18
14,19
14,24
14,40
15,20
15,38
16,23
17,26
18,30
19,28
20,25
20,31
22,29
23,27
23,31
25,32
26,34
27,35
28,36
29,33
29,37
29,38
29,41
31,39
31,40
32,42
33,43
34,45
35,46
36,45
37,44
38,47
40,47
40,49
42,49
43,50
44,48

<end>
